Optimal - objective value 2642.00000000
      3 x_0_4                  1                    -278
     14 x_1_6                  1                       0
     24 x_2_7                  1                       0
     35 x_3_9                  1                       0
     37 x_4_1                  1                     202
     52 x_5_8                  1                    -714
     59 x_6_5                  1                       0
     66 x_7_3                  1                       0
     74 x_8_2                  1                       0
     81 x_9_0                  1                     790
     90 u_1                    2                       0
     91 u_2                    6                       0
     92 u_3                    8                       0
     93 u_4                    1                       0
     94 u_5                    4                       0
     95 u_6                    3                       0
     96 u_7                    7                       0
     97 u_8                    5                       0
     98 u_9                    9                       0
